(declare-fun temp1706_1 () (_ BitVec 64))
(declare-fun temp1706_2 () (_ BitVec 64))
(declare-fun temp1706_3 () (_ BitVec 64))
(declare-fun ARGNAME_y_NAMEEND_DIMSIZE () (Array (_ BitVec 64) (_ BitVec 64)))
(declare-fun temp1706_4 () (_ BitVec 64))
(declare-fun temp1706_5 () (_ BitVec 64))
(declare-fun temp1706_6 () (_ BitVec 64))
(declare-fun temp1706_7 () (_ BitVec 64))
(declare-fun temp1706_8 () (_ BitVec 64))
(declare-fun temp1706_9 () (_ BitVec 64))
(declare-fun temp1706_10 () (_ BitVec 64))
(declare-fun temp1706_11 () (_ BitVec 64))
(declare-fun temp1706_12 () (_ BitVec 64))
(declare-fun temp1706_13 () (_ BitVec 64))
(declare-fun temp1706_14 () (_ BitVec 64))
(declare-fun temp1706_15 () (_ BitVec 64))
(declare-fun temp1706_16 () (_ BitVec 64))
(declare-fun temp1706_17 () (_ BitVec 64))
(declare-fun temp1706_18 () (_ BitVec 64))
(declare-fun temp1706_19 () (_ BitVec 64))
(declare-fun temp1706_20 () (_ BitVec 64))
(declare-fun var66228 () (_ BitVec 64))
(declare-fun ARGNAME_y_NAMEEND_DIM () (_ BitVec 64))
(declare-fun temp1706_21 () (_ BitVec 64))
(declare-fun var66232 () (_ BitVec 64))
(declare-fun temp1706_22 () (_ BitVec 64))
(declare-fun temp1706_23 () (_ BitVec 64))
(declare-fun var66235 () (_ BitVec 64))
(declare-fun k!0 () (_ BitVec 64))
(declare-fun k!1 () Bool)
(declare-fun temp1706_24 () (_ BitVec 64))
(declare-fun ARGNAME_x_NAMEEND_DIM () (_ BitVec 64))
(declare-fun var66276 () (_ BitVec 64))
(declare-fun temp1706_25 () (_ BitVec 64))
(declare-fun temp1706_26 () (_ BitVec 64))
(declare-fun var65762 () (_ BitVec 64))
(declare-fun temp1706_27 () (_ BitVec 64))
(declare-fun temp1706_28 () (_ BitVec 64))
(declare-fun ARGNAME_x_NAMEEND_DIMSIZE () (Array (_ BitVec 64) (_ BitVec 64)))
(declare-fun temp1706_29 () (_ BitVec 64))
(declare-fun temp1706_30 () (_ BitVec 64))
(declare-fun temp1706_31 () (_ BitVec 64))
(declare-fun temp1706_32 () (_ BitVec 64))
(declare-fun temp1706_33 () (_ BitVec 64))
(declare-fun temp1706_34 () (_ BitVec 64))
(declare-fun temp1706_35 () (_ BitVec 64))
(declare-fun temp1706_36 () (_ BitVec 64))
(declare-fun temp1706_37 () (_ BitVec 64))
(declare-fun temp1706_38 () (_ BitVec 64))
(declare-fun temp1706_39 () (_ BitVec 64))
(declare-fun temp1706_40 () (_ BitVec 64))
(declare-fun temp1706_41 () (_ BitVec 64))
(declare-fun temp1706_42 () (_ BitVec 64))
(declare-fun temp1706_43 () (_ BitVec 64))
(declare-fun temp1706_44 () (_ BitVec 64))
(declare-fun temp1706_45 () (_ BitVec 64))
(declare-fun temp1706_46 () (_ BitVec 64))
(declare-fun temp1706_47 () (_ BitVec 64))
(declare-fun var66279 () (_ BitVec 64))
(declare-fun temp1706_48 () (_ BitVec 64))
(declare-fun temp1706_49 () (_ BitVec 64))
(declare-fun temp1706_50 () (_ BitVec 64))
(declare-fun var66280 () (_ BitVec 64))
(declare-fun var66281 () (_ BitVec 64))
(declare-fun temp1706_51 () (_ BitVec 64))
(declare-fun temp1706_53 () (_ BitVec 64))
(declare-fun temp1706_52 () (_ BitVec 64))
(declare-fun temp1706_54 () (_ BitVec 64))
(declare-fun var526834 () (_ BitVec 64))
(declare-fun var526836 () (_ BitVec 64))
(declare-fun var592572 () (_ BitVec 64))
(declare-fun var658116 () (_ BitVec 64))
(declare-fun temp1706_55 () (_ BitVec 64))
(declare-fun temp1706_56 () (_ BitVec 64))
(declare-fun temp1706_57 () (_ BitVec 64))
(declare-fun temp1706_58 () (_ BitVec 64))
(declare-fun var66309 () (_ BitVec 64))
(declare-fun temp1706_60 () (_ BitVec 64))
(declare-fun temp1706_59 () (_ BitVec 64))
(declare-fun temp1706_62 () (_ BitVec 64))
(declare-fun temp1706_61 () (_ BitVec 64))
(declare-fun temp1706_63 () (_ BitVec 64))
(declare-fun var2360614 () (_ BitVec 64))
(declare-fun temp1706_64 () (_ BitVec 64))
(declare-fun var2360648 () (_ BitVec 64))
(declare-fun temp1706_65 () (_ BitVec 64))
(declare-fun temp1706_67 () (_ BitVec 64))
(declare-fun temp1706_66 () (_ BitVec 64))
(declare-fun temp1706_68 () (_ BitVec 64))
(declare-fun var2819366 () (_ BitVec 64))
(declare-fun temp1706_69 () (_ BitVec 64))
(declare-fun var2819400 () (_ BitVec 64))
(declare-fun temp1706_70 () (_ BitVec 64))
(declare-fun var2819414 () (_ BitVec 64))
(declare-fun temp1706_71 () (_ BitVec 64))
(declare-fun temp1706_72 () (_ BitVec 64))
(assert (= temp1706_1 #x0000000000000000))
(assert (= temp1706_2 temp1706_1))
(assert (= temp1706_3 (select ARGNAME_y_NAMEEND_DIMSIZE temp1706_2)))
(assert (= temp1706_4 #x0000000000000001))
(assert (= temp1706_5 temp1706_4))
(assert (= temp1706_6 (select ARGNAME_y_NAMEEND_DIMSIZE temp1706_5)))
(assert (= temp1706_7 #x0000000000000002))
(assert (= temp1706_8 temp1706_7))
(assert (= temp1706_9 (select ARGNAME_y_NAMEEND_DIMSIZE temp1706_8)))
(assert (= temp1706_10 #x0000000000000003))
(assert (= temp1706_11 temp1706_10))
(assert (= temp1706_12 (select ARGNAME_y_NAMEEND_DIMSIZE temp1706_11)))
(assert (= temp1706_13 #x0000000000000004))
(assert (= temp1706_14 temp1706_13))
(assert (= temp1706_15 (select ARGNAME_y_NAMEEND_DIMSIZE temp1706_14)))
(assert (= temp1706_16 #x0000000000000005))
(assert (= temp1706_17 temp1706_16))
(assert (= temp1706_18 (select ARGNAME_y_NAMEEND_DIMSIZE temp1706_17)))
(assert (= temp1706_19 #x0000000000000000))
(assert (= temp1706_20
   (ite (bvslt var66228 temp1706_19)
        (bvadd ARGNAME_y_NAMEEND_DIM var66228)
        var66228)))
(assert (= temp1706_21 (select ARGNAME_y_NAMEEND_DIMSIZE temp1706_20)))
(assert (= var66232 temp1706_21))
(assert (bvslt (ite (bvslt var66228 temp1706_19)
            (bvadd ARGNAME_y_NAMEEND_DIM var66228)
            var66228)
       ARGNAME_y_NAMEEND_DIM))
(assert (= temp1706_22 #x0000000000000000))
(assert (= var66235
   (ite (= var66232 temp1706_22) #x0000000000000001 #x0000000000000000)))
(assert (= temp1706_23 #x0000000000000000))
(assert (= var66235 temp1706_23))
(assert (= temp1706_24 #x0000000000000001))
(assert (= var66276
   (ite (= ARGNAME_x_NAMEEND_DIM temp1706_24)
        #x0000000000000001
        #x0000000000000000)))
(assert (= temp1706_25 #x0000000000000001))
(assert (= var66276 temp1706_25))
(assert (= temp1706_26 #x0000000000000000))
(assert (= var65762 temp1706_26))
(assert (= temp1706_27 #x0000000000000000))
(assert (= temp1706_28 temp1706_27))
(assert (= temp1706_29 (select ARGNAME_x_NAMEEND_DIMSIZE temp1706_28)))
(assert (= temp1706_30 #x0000000000000001))
(assert (= temp1706_31 temp1706_30))
(assert (= temp1706_32 (select ARGNAME_x_NAMEEND_DIMSIZE temp1706_31)))
(assert (= temp1706_33 #x0000000000000002))
(assert (= temp1706_34 temp1706_33))
(assert (= temp1706_35 (select ARGNAME_x_NAMEEND_DIMSIZE temp1706_34)))
(assert (= temp1706_36 #x0000000000000003))
(assert (= temp1706_37 temp1706_36))
(assert (= temp1706_38 (select ARGNAME_x_NAMEEND_DIMSIZE temp1706_37)))
(assert (= temp1706_39 #x0000000000000004))
(assert (= temp1706_40 temp1706_39))
(assert (= temp1706_41 (select ARGNAME_x_NAMEEND_DIMSIZE temp1706_40)))
(assert (= temp1706_42 #x0000000000000005))
(assert (= temp1706_43 temp1706_42))
(assert (= temp1706_44 (select ARGNAME_x_NAMEEND_DIMSIZE temp1706_43)))
(assert (= temp1706_45 #x0000000000000000))
(assert (= temp1706_46
   (ite (bvslt var65762 temp1706_45)
        (bvadd ARGNAME_x_NAMEEND_DIM var65762)
        var65762)))
(assert (= temp1706_47 (select ARGNAME_x_NAMEEND_DIMSIZE temp1706_46)))
(assert (= var66279 temp1706_47))
(assert (bvslt (ite (bvslt var65762 temp1706_45)
            (bvadd ARGNAME_x_NAMEEND_DIM var65762)
            var65762)
       ARGNAME_x_NAMEEND_DIM))
(assert (= temp1706_48 #x0000000000000000))
(assert (= temp1706_49
   (ite (bvslt var66228 temp1706_48)
        (bvadd ARGNAME_y_NAMEEND_DIM var66228)
        var66228)))
(assert (= temp1706_50 (select ARGNAME_y_NAMEEND_DIMSIZE temp1706_49)))
(assert (= var66280 temp1706_50))
(assert (bvslt (ite (bvslt var66228 temp1706_48)
            (bvadd ARGNAME_y_NAMEEND_DIM var66228)
            var66228)
       ARGNAME_y_NAMEEND_DIM))
(assert (= var66281 (ite (= var66279 var66280) #x0000000000000001 #x0000000000000000)))
(assert (= temp1706_51 #x0000000000000001))
(assert (= var66281 temp1706_51))
(assert (= temp1706_53 #x0000000000000001))
(assert (= temp1706_52 temp1706_53))
(assert (= temp1706_54 #x0000000000000005))
(assert (= var526834 temp1706_54))
(assert (= var526836 var526834))
(assert (= var592572 var526836))
(assert (= var658116 var592572))
(assert (= temp1706_55 #x0000000000000000))
(assert (= var65762 temp1706_55))
(assert (= temp1706_56 #x0000000000000000))
(assert (= temp1706_57
   (ite (bvslt var65762 temp1706_56)
        (bvadd ARGNAME_x_NAMEEND_DIM var65762)
        var65762)))
(assert (= temp1706_58 (select ARGNAME_x_NAMEEND_DIMSIZE temp1706_57)))
(assert (= var66309 temp1706_58))
(assert (bvslt (ite (bvslt var65762 temp1706_56)
            (bvadd ARGNAME_x_NAMEEND_DIM var65762)
            var65762)
       ARGNAME_x_NAMEEND_DIM))
(assert (= temp1706_60 #x0000000000000000))
(assert (= temp1706_59 temp1706_60))
(assert (= temp1706_62 #xffffffffffffffff))
(assert (= temp1706_61 temp1706_62))
(assert (= temp1706_63 #x0000000000000001))
(assert (= var2360614 temp1706_63))
(assert (= temp1706_64 #x0000000000000000))
(assert (= var2360648 temp1706_64))
(assert (= temp1706_65 #x0000000000000000))
(assert (= var2360648 temp1706_65))
(assert (= temp1706_67 #x0000000000000001))
(assert (= temp1706_66 temp1706_67))
(assert (= temp1706_68 #x0000000000000001))
(assert (= var2819366 temp1706_68))
(assert (= temp1706_69 #x0000000000000000))
(assert (= var2819400 temp1706_69))
(assert (= temp1706_70 #x0000000000000000))
(assert (= var2819414 temp1706_70))
(assert (= temp1706_71 #x0000000000000000))
(assert (= var2819414 temp1706_71))
(assert (= temp1706_72 #x0000000000000000))
(assert (= var2819400 temp1706_72))
(model-add temp1706_1 () (_ BitVec 64) #x0000000000000000)
(model-add temp1706_2 () (_ BitVec 64) #x0000000000000000)
(model-add temp1706_3
           ()
           (_ BitVec 64)
           (select ARGNAME_y_NAMEEND_DIMSIZE #x0000000000000000))
(model-add temp1706_4 () (_ BitVec 64) #x0000000000000001)
(model-add temp1706_5 () (_ BitVec 64) #x0000000000000001)
(model-add temp1706_6
           ()
           (_ BitVec 64)
           (select ARGNAME_y_NAMEEND_DIMSIZE #x0000000000000001))
(model-add temp1706_7 () (_ BitVec 64) #x0000000000000002)
(model-add temp1706_8 () (_ BitVec 64) #x0000000000000002)
(model-add temp1706_9
           ()
           (_ BitVec 64)
           (select ARGNAME_y_NAMEEND_DIMSIZE #x0000000000000002))
(model-add temp1706_10 () (_ BitVec 64) #x0000000000000003)
(model-add temp1706_11 () (_ BitVec 64) #x0000000000000003)
(model-add temp1706_12
           ()
           (_ BitVec 64)
           (select ARGNAME_y_NAMEEND_DIMSIZE #x0000000000000003))
(model-add temp1706_13 () (_ BitVec 64) #x0000000000000004)
(model-add temp1706_14 () (_ BitVec 64) #x0000000000000004)
(model-add temp1706_15
           ()
           (_ BitVec 64)
           (select ARGNAME_y_NAMEEND_DIMSIZE #x0000000000000004))
(model-add temp1706_16 () (_ BitVec 64) #x0000000000000005)
(model-add temp1706_17 () (_ BitVec 64) #x0000000000000005)
(model-add temp1706_18
           ()
           (_ BitVec 64)
           (select ARGNAME_y_NAMEEND_DIMSIZE #x0000000000000005))
(model-add temp1706_19 () (_ BitVec 64) #x0000000000000000)
(model-add temp1706_20
           ()
           (_ BitVec 64)
           (ite (bvsle #x0000000000000000 var66228)
                var66228
                (bvadd ARGNAME_y_NAMEEND_DIM var66228)))
(model-add temp1706_21
           ()
           (_ BitVec 64)
           (select ARGNAME_y_NAMEEND_DIMSIZE
                   (ite (bvsle #x0000000000000000 var66228)
                        var66228
                        (bvadd ARGNAME_y_NAMEEND_DIM var66228))))
(model-add var66232
           ()
           (_ BitVec 64)
           (select ARGNAME_y_NAMEEND_DIMSIZE
                   (ite (bvsle #x0000000000000000 var66228)
                        var66228
                        (bvadd ARGNAME_y_NAMEEND_DIM var66228))))
(model-add temp1706_22 () (_ BitVec 64) #x0000000000000000)
(model-add temp1706_23 () (_ BitVec 64) #x0000000000000000)
(model-add var66235 () (_ BitVec 64) #x0000000000000000)
(model-del k!0)
(model-add ARGNAME_y_NAMEEND_DIMSIZE
           ()
           (Array (_ BitVec 64) (_ BitVec 64))
           ((as const (Array (_ BitVec 64) (_ BitVec 64))) k!0))
(model-del k!1)
(model-add k!0
           ()
           (_ BitVec 64)
           (ite k!1 #x0000000000000000 (bvnot #x0000000000000000)))



